(declare-datatypes ((_tuple_2 0)) (((_tuple_2 (__f1 Int) (__f2 Int) (__f3 Int) (__f4 Int)))))
(declare-datatypes ((_enum_0 0)) (((Alarm_r_reaction_0) (Alarm_r_reaction_1) (NULL))))
(declare-datatypes ((_tuple_1 0)) (((_tuple_1 (__f1 Int) (__f2 Int)))))
(declare-datatypes ((_tuple_3 0)) (((_tuple_3 (__f1 Bool) (__f2 Bool) (__f3 Bool)))))
(declare-datatypes ((_tuple_0 0)) (((_tuple_0 (__f1 _enum_0) (__f2 _tuple_1) (__f3 _tuple_2) (__f4 _tuple_3)))))
(declare-datatypes ((_tuple_4 0)) (((_tuple_4 (__f1 _tuple_0) (__f2 _tuple_0) (__f3 _tuple_0) (__f4 _tuple_0)))))
(declare-fun initial_2_trace () _tuple_4)
(declare-fun initial_1_start () Int)
(assert (forall ((j Int))
  (! (let ((a!1 (not (and (not (<= j 0)) (<= j 3))))
           (a!2 (_tuple_0 NULL
                          (_tuple_1 (- 1) 0)
                          (_tuple_2 0 0 0 0)
                          (_tuple_3 false false false))))
     (let ((a!3 (ite (= j 1)
                     (__f2 initial_2_trace)
                     (ite (= j 2)
                          (__f3 initial_2_trace)
                          (ite (= j 3) (__f4 initial_2_trace) a!2))))
           (a!5 (ite (= j 2)
                     (__f2 initial_2_trace)
                     (ite (= j 3)
                          (__f3 initial_2_trace)
                          (ite (= j 4) (__f4 initial_2_trace) a!2)))))
     (let ((a!4 (= (__f1 (ite (= j 0) (__f1 initial_2_trace) a!3)) NULL))
           (a!6 (= (__f3 (ite (= j 0) (__f1 initial_2_trace) a!3))
                   (__f3 (ite (= j 1) (__f1 initial_2_trace) a!5)))))
       (or a!1 (not a!4) a!6))))
     :skolemid _skolem_0
     :qid _forall_0)))
(assert (forall ((i Int))
  (! (let ((a!1 (not (and (not (<= i 0)) (<= i 3))))
           (a!2 (ite (= i 2)
                     (__f3 initial_2_trace)
                     (ite (= i 3)
                          (__f4 initial_2_trace)
                          (_tuple_0 NULL
                                    (_tuple_1 (- 1) 0)
                                    (_tuple_2 0 0 0 0)
                                    (_tuple_3 false false false))))))
     (let ((a!3 (__f2 (ite (= i 0)
                           (__f1 initial_2_trace)
                           (ite (= i 1) (__f2 initial_2_trace) a!2)))))
     (let ((a!4 (and (not (<= 0 (__f1 a!3))) (<= 0 initial_1_start)))
           (a!5 (and (= (__f1 a!3) initial_1_start) (not (<= (__f2 a!3) 0)))))
       (or a!1
           a!4
           a!5
           (not (<= (__f1 a!3) initial_1_start))
           (= a!3 (_tuple_1 initial_1_start 0))))))
     :skolemid _skolem_1
     :qid _forall_1)))
(assert (forall ((i Int))
  (! (let ((a!1 (not (and (not (<= i 0)) (<= i 3))))
           (a!2 (_tuple_0 NULL
                          (_tuple_1 (- 1) 0)
                          (_tuple_2 0 0 0 0)
                          (_tuple_3 false false false)))
           (a!5 (exists ((j Int))
                  (! (let ((a!1 (_tuple_0 NULL
                                          (_tuple_1 (- 1) 0)
                                          (_tuple_2 0 0 0 0)
                                          (_tuple_3 false false false))))
                     (let ((a!2 (ite (= j 1)
                                     (__f2 initial_2_trace)
                                     (ite (= j 2)
                                          (__f3 initial_2_trace)
                                          (ite (= j 3)
                                               (__f4 initial_2_trace)
                                               a!1))))
                           (a!4 (ite (= i 1)
                                     (__f2 initial_2_trace)
                                     (ite (= i 2)
                                          (__f3 initial_2_trace)
                                          (ite (= i 3)
                                               (__f4 initial_2_trace)
                                               a!1)))))
                     (let ((a!3 (= (__f1 (ite (= j 0)
                                              (__f1 initial_2_trace)
                                              a!2))
                                   Alarm_r_reaction_0))
                           (a!5 (__f1 (__f2 (ite (= j 0)
                                                 (__f1 initial_2_trace)
                                                 a!2)))))
                     (let ((a!6 (= (__f2 (ite (= i 0)
                                              (__f1 initial_2_trace)
                                              a!4))
                                   (ite (<= 0 a!5)
                                        (_tuple_1 (+ 2000000000 a!5) 0)
                                        (_tuple_1 (- 1) 0)))))
                       (and (>= j 0) (not (<= i j)) a!3 a!6)))))
                     :skolemid _skolem_2
                     :qid _exists_0))))
     (let ((a!3 (ite (= i 1)
                     (__f2 initial_2_trace)
                     (ite (= i 2)
                          (__f3 initial_2_trace)
                          (ite (= i 3) (__f4 initial_2_trace) a!2))))
           (a!7 (ite (= i 2)
                     (__f2 initial_2_trace)
                     (ite (= i 3)
                          (__f3 initial_2_trace)
                          (ite (= i 4) (__f4 initial_2_trace) a!2)))))
     (let ((a!4 (__f3 (__f4 (ite (= i 0) (__f1 initial_2_trace) a!3))))
           (a!6 (__f3 (__f3 (ite (= i 0) (__f1 initial_2_trace) a!3))))
           (a!8 (__f3 (__f3 (ite (= i 1) (__f1 initial_2_trace) a!7)))))
       (or a!1 (and (or (not a!4) a!5) (or a!4 (= a!6 a!8)))))))
     :skolemid _skolem_3
     :qid _forall_2)))
(assert (forall ((i Int) (j Int))
  (! (let ((a!1 (_tuple_0 NULL
                          (_tuple_1 (- 1) 0)
                          (_tuple_2 0 0 0 0)
                          (_tuple_3 false false false))))
     (let ((a!2 (ite (= i 1)
                     (__f2 initial_2_trace)
                     (ite (= i 2)
                          (__f3 initial_2_trace)
                          (ite (= i 3) (__f4 initial_2_trace) a!1))))
           (a!3 (ite (= j 1)
                     (__f2 initial_2_trace)
                     (ite (= j 2)
                          (__f3 initial_2_trace)
                          (ite (= j 3) (__f4 initial_2_trace) a!1)))))
     (let ((a!4 (= (__f2 (ite (= i 0) (__f1 initial_2_trace) a!2))
                   (__f2 (ite (= j 0) (__f1 initial_2_trace) a!3))))
           (a!5 (= (__f1 (ite (= i 0) (__f1 initial_2_trace) a!2))
                   Alarm_r_reaction_0))
           (a!6 (= (__f1 (ite (= j 0) (__f1 initial_2_trace) a!3))
                   Alarm_r_reaction_1))
           (a!7 (__f1 (__f2 (ite (= i 0) (__f1 initial_2_trace) a!2))))
           (a!8 (__f1 (__f2 (ite (= j 0) (__f1 initial_2_trace) a!3))))
           (a!9 (__f2 (__f2 (ite (= j 0) (__f1 initial_2_trace) a!3))))
           (a!10 (__f2 (__f2 (ite (= i 0) (__f1 initial_2_trace) a!2)))))
     (let ((a!11 (or (and a!4 a!5 a!6)
                     (and (<= 0 a!7) (not (<= 0 a!8)))
                     (and (= a!7 a!8) (not (<= a!9 a!10)))
                     (not (<= a!8 a!7)))))
       (or (not (and (>= i 0) (<= i 3) (>= j 0) (<= j 3)))
           (not (<= j i))
           (not a!11))))))
     :skolemid _skolem_4
     :qid _forall_3)))
(assert (forall ((i Int))
  (! (let ((a!1 (_tuple_0 NULL
                          (_tuple_1 (- 1) 0)
                          (_tuple_2 0 0 0 0)
                          (_tuple_3 false false false))))
     (let ((a!2 (ite (= i 1)
                     (__f2 initial_2_trace)
                     (ite (= i 2)
                          (__f3 initial_2_trace)
                          (ite (= i 3) (__f4 initial_2_trace) a!1))))
           (a!5 (ite (= i 2)
                     (__f2 initial_2_trace)
                     (ite (= i 3)
                          (__f3 initial_2_trace)
                          (ite (= i 4) (__f4 initial_2_trace) a!1)))))
     (let ((a!3 (= (__f1 (ite (= i 0) (__f1 initial_2_trace) a!2))
                   Alarm_r_reaction_1))
           (a!4 (__f4 (__f3 (ite (= i 0) (__f1 initial_2_trace) a!2))))
           (a!6 (__f4 (__f3 (ite (= i 1) (__f1 initial_2_trace) a!5))))
           (a!7 (__f1 (__f4 (ite (= i 0) (__f1 initial_2_trace) a!2))))
           (a!8 (__f2 (__f4 (ite (= i 0) (__f1 initial_2_trace) a!2)))))
       (or (not (and (>= i 0) (<= i 3)))
           (not a!3)
           (and (= a!4 a!6) (not a!7) (not a!8))))))
     :skolemid _skolem_5
     :qid _forall_4)))
(assert (forall ((i Int))
  (! (let ((a!1 (not (and (not (<= i 0)) (<= i 3))))
           (a!2 (ite (= i 2)
                     (__f3 initial_2_trace)
                     (ite (= i 3)
                          (__f4 initial_2_trace)
                          (_tuple_0 NULL
                                    (_tuple_1 (- 1) 0)
                                    (_tuple_2 0 0 0 0)
                                    (_tuple_3 false false false))))))
     (let ((a!3 (ite (= i 0)
                     (__f1 initial_2_trace)
                     (ite (= i 1) (__f2 initial_2_trace) a!2))))
       (or a!1 (= (__f1 (__f4 a!3)) (= (__f1 a!3) Alarm_r_reaction_0)))))
     :skolemid _skolem_6
     :qid _forall_5)))
(assert (forall ((i Int))
  (! (let ((a!1 (not (and (not (<= i 0)) (<= i 3))))
           (a!2 (ite (= i 2)
                     (__f3 initial_2_trace)
                     (ite (= i 3)
                          (__f4 initial_2_trace)
                          (_tuple_0 NULL
                                    (_tuple_1 (- 1) 0)
                                    (_tuple_2 0 0 0 0)
                                    (_tuple_3 false false false))))))
     (let ((a!3 (__f2 (ite (= i 0)
                           (__f1 initial_2_trace)
                           (ite (= i 1) (__f2 initial_2_trace) a!2)))))
       (or a!1 (>= (__f1 a!3) 0))))
     :skolemid _skolem_7
     :qid _forall_6)))
(assert (forall ((i Int))
  (! (let ((a!1 (not (and (not (<= i 0)) (<= i 3))))
           (a!2 (ite (= i 2)
                     (__f3 initial_2_trace)
                     (ite (= i 3)
                          (__f4 initial_2_trace)
                          (_tuple_0 NULL
                                    (_tuple_1 (- 1) 0)
                                    (_tuple_2 0 0 0 0)
                                    (_tuple_3 false false false))))))
     (let ((a!3 (ite (= i 0)
                     (__f1 initial_2_trace)
                     (ite (= i 1) (__f2 initial_2_trace) a!2))))
       (or a!1 (= (__f3 (__f4 a!3)) (= (__f1 a!3) Alarm_r_reaction_1)))))
     :skolemid _skolem_8
     :qid _forall_7)))
(assert (forall ((j Int))
  (! (let ((a!1 (not (and (not (<= j 0)) (<= j 3))))
           (a!2 (ite (= j 2)
                     (__f3 initial_2_trace)
                     (ite (= j 3)
                          (__f4 initial_2_trace)
                          (_tuple_0 NULL
                                    (_tuple_1 (- 1) 0)
                                    (_tuple_2 0 0 0 0)
                                    (_tuple_3 false false false)))))
           (a!4 (forall ((i Int))
                  (! (let ((a!1 (not (and (not (<= i 0)) (not (<= j i)))))
                           (a!2 (ite (= i 2)
                                     (__f3 initial_2_trace)
                                     (ite (= i 3)
                                          (__f4 initial_2_trace)
                                          (_tuple_0 NULL
                                                    (_tuple_1 (- 1) 0)
                                                    (_tuple_2 0 0 0 0)
                                                    (_tuple_3 false false false))))))
                     (let ((a!3 (__f1 (ite (= i 0)
                                           (__f1 initial_2_trace)
                                           (ite (= i 1)
                                                (__f2 initial_2_trace)
                                                a!2)))))
                       (or a!1 (not (= a!3 NULL)))))
                     :skolemid _skolem_9
                     :qid _forall_8))))
     (let ((a!3 (__f1 (ite (= j 0)
                           (__f1 initial_2_trace)
                           (ite (= j 1) (__f2 initial_2_trace) a!2)))))
       (or a!1 (= a!3 NULL) a!4)))
     :skolemid _skolem_10
     :qid _forall_9)))
(assert (forall ((i Int) (j Int))
  (! (let ((a!1 (_tuple_0 NULL
                          (_tuple_1 (- 1) 0)
                          (_tuple_2 0 0 0 0)
                          (_tuple_3 false false false))))
     (let ((a!2 (ite (= i 1)
                     (__f2 initial_2_trace)
                     (ite (= i 2)
                          (__f3 initial_2_trace)
                          (ite (= i 3) (__f4 initial_2_trace) a!1))))
           (a!3 (ite (= j 1)
                     (__f2 initial_2_trace)
                     (ite (= j 2)
                          (__f3 initial_2_trace)
                          (ite (= j 3) (__f4 initial_2_trace) a!1)))))
     (let ((a!4 (= (__f2 (ite (= i 0) (__f1 initial_2_trace) a!2))
                   (__f2 (ite (= j 0) (__f1 initial_2_trace) a!3))))
           (a!5 (= (__f1 (ite (= i 0) (__f1 initial_2_trace) a!2))
                   (__f1 (ite (= j 0) (__f1 initial_2_trace) a!3)))))
     (let ((a!6 (not (and a!5 (not (= i j))))))
       (or (not (and (>= i 0) (<= i 3) (>= j 0) (<= j 3))) (not a!4) a!6)))))
     :skolemid _skolem_11
     :qid _forall_10)))
(assert (forall ((i Int))
  (! (let ((a!1 (_tuple_0 NULL
                          (_tuple_1 (- 1) 0)
                          (_tuple_2 0 0 0 0)
                          (_tuple_3 false false false)))
           (a!4 (exists ((i0 Int))
                  (! (let ((a!1 (_tuple_0 NULL
                                          (_tuple_1 (- 1) 0)
                                          (_tuple_2 0 0 0 0)
                                          (_tuple_3 false false false))))
                     (let ((a!2 (ite (= i0 1)
                                     (__f2 initial_2_trace)
                                     (ite (= i0 2)
                                          (__f3 initial_2_trace)
                                          (ite (= i0 3)
                                               (__f4 initial_2_trace)
                                               a!1))))
                           (a!5 (ite (= i 1)
                                     (__f2 initial_2_trace)
                                     (ite (= i 2)
                                          (__f3 initial_2_trace)
                                          (ite (= i 3)
                                               (__f4 initial_2_trace)
                                               a!1)))))
                     (let ((a!3 (__f3 (__f4 (ite (= i0 0)
                                                 (__f1 initial_2_trace)
                                                 a!2))))
                           (a!4 (__f3 (__f3 (ite (= i0 0)
                                                 (__f1 initial_2_trace)
                                                 a!2))))
                           (a!6 (__f1 (__f2 (ite (= i 0)
                                                 (__f1 initial_2_trace)
                                                 a!5)))))
                     (let ((a!7 (= (__f2 (ite (= i0 0)
                                              (__f1 initial_2_trace)
                                              a!2))
                                   (ite (<= 0 a!6)
                                        (_tuple_1 (+ 2000000000 a!6) 0)
                                        (_tuple_1 (- 1) 0)))))
                       (and (not (<= i0 i)) a!3 (= a!4 0) a!7)))))
                     :skolemid _skolem_12
                     :qid _exists_1))))
     (let ((a!2 (ite (= i 1)
                     (__f2 initial_2_trace)
                     (ite (= i 2)
                          (__f3 initial_2_trace)
                          (ite (= i 3) (__f4 initial_2_trace) a!1))))
           (a!6 (ite (= i 2)
                     (__f2 initial_2_trace)
                     (ite (= i 3)
                          (__f3 initial_2_trace)
                          (ite (= i 4) (__f4 initial_2_trace) a!1)))))
     (let ((a!3 (= (__f1 (ite (= i 0) (__f1 initial_2_trace) a!2))
                   Alarm_r_reaction_0))
           (a!5 (__f4 (__f3 (ite (= i 0) (__f1 initial_2_trace) a!2))))
           (a!7 (__f4 (__f3 (ite (= i 1) (__f1 initial_2_trace) a!6))))
           (a!8 (__f2 (__f4 (ite (= i 0) (__f1 initial_2_trace) a!2)))))
       (or (not (and (>= i 0) (<= i 3)))
           (not a!3)
           (and (or (<= 3 i) a!4) (= a!5 a!7) (not a!8))))))
     :skolemid _skolem_13
     :qid _forall_11)))
(assert (forall ((i Int))
  (! (let ((a!1 (not (and (not (<= i 0)) (<= i 3))))
           (a!2 (ite (= i 2)
                     (__f3 initial_2_trace)
                     (ite (= i 3)
                          (__f4 initial_2_trace)
                          (_tuple_0 NULL
                                    (_tuple_1 (- 1) 0)
                                    (_tuple_2 0 0 0 0)
                                    (_tuple_3 false false false))))))
     (let ((a!3 (__f2 (ite (= i 0)
                           (__f1 initial_2_trace)
                           (ite (= i 1) (__f2 initial_2_trace) a!2)))))
       (or a!1 (>= (__f2 a!3) 0))))
     :skolemid _skolem_14
     :qid _forall_12)))
(assert (let ((a!1 (= (__f1 (__f3 (__f1 initial_2_trace))) 0))
      (a!2 (= (__f2 (__f3 (__f1 initial_2_trace))) 0))
      (a!3 (= (__f3 (__f3 (__f1 initial_2_trace))) 0))
      (a!4 (= (__f4 (__f3 (__f1 initial_2_trace))) 0))
      (a!6 (forall ((i Int))
             (! (let ((a!1 (_tuple_0 NULL
                                     (_tuple_1 (- 1) 0)
                                     (_tuple_2 0 0 0 0)
                                     (_tuple_3 false false false)))
                      (a!4 (exists ((i0 Int))
                             (! (let ((a!1 (_tuple_0 NULL
                                                     (_tuple_1 (- 1) 0)
                                                     (_tuple_2 0 0 0 0)
                                                     (_tuple_3 false
                                                               false
                                                               false))))
                                (let ((a!2 (ite (= i0 1)
                                                (__f2 initial_2_trace)
                                                (ite (= i0 2)
                                                     (__f3 initial_2_trace)
                                                     (ite (= i0 3)
                                                          (__f4 initial_2_trace)
                                                          a!1))))
                                      (a!4 (ite (= i 1)
                                                (__f2 initial_2_trace)
                                                (ite (= i 2)
                                                     (__f3 initial_2_trace)
                                                     (ite (= i 3)
                                                          (__f4 initial_2_trace)
                                                          a!1)))))
                                (let ((a!3 (= (__f1 (ite (= i0 0)
                                                         (__f1 initial_2_trace)
                                                         a!2))
                                              Alarm_r_reaction_1))
                                      (a!5 (__f1 (__f2 (ite (= i 0)
                                                            (__f1 initial_2_trace)
                                                            a!4))))
                                      (a!7 (__f1 (__f2 (ite (= i0 0)
                                                            (__f1 initial_2_trace)
                                                            a!2))))
                                      (a!8 (__f2 (__f2 (ite (= i0 0)
                                                            (__f1 initial_2_trace)
                                                            a!2)))))
                                (let ((a!6 (ite (<= 0 a!5)
                                                (_tuple_1 (+ 1000000000 a!5) 0)
                                                (_tuple_1 (- 1) 0))))
                                (let ((a!9 (and (= a!7 (__f1 a!6))
                                                (not (<= (__f2 a!6) a!8))))
                                      (a!10 (and (<= 0 a!7)
                                                 (not (<= 0 (__f1 a!6))))))
                                (let ((a!11 (or (not (<= (__f1 a!6) a!7))
                                                a!9
                                                a!10)))
                                  (and (>= i0 i) (<= i0 (+ 2 i)) a!3 a!11)))))))
                                :skolemid _skolem_15
                                :qid _exists_2))))
                (let ((a!2 (ite (= i 1)
                                (__f2 initial_2_trace)
                                (ite (= i 2)
                                     (__f3 initial_2_trace)
                                     (ite (= i 3) (__f4 initial_2_trace) a!1)))))
                (let ((a!3 (= (__f1 (ite (= i 0) (__f1 initial_2_trace) a!2))
                              Alarm_r_reaction_0))
                      (a!5 (__f1 (__f2 (ite (= i 0) (__f1 initial_2_trace) a!2))))
                      (a!6 (__f2 (__f2 (ite (= i 0) (__f1 initial_2_trace) a!2))))
                      (a!7 (= (__f2 (ite (= i 0) (__f1 initial_2_trace) a!2))
                              (_tuple_1 initial_1_start 0))))
                (let ((a!8 (or (and (not (<= 0 a!5)) (<= 0 initial_1_start))
                               (and (= a!5 initial_1_start) (not (<= a!6 0)))
                               (not (<= a!5 initial_1_start))
                               a!7)))
                  (or (not (and (>= i 0) (<= i 2)))
                      (and (or (not a!3) a!4) a!8))))))
                :skolemid _skolem_16
                :qid _forall_13))))
(let ((a!5 (and (= initial_1_start 0)
                (= (__f1 (__f1 initial_2_trace)) NULL)
                (= (__f2 (__f1 initial_2_trace)) (_tuple_1 0 0))
                a!1
                a!2
                a!3
                a!4)))
  (not (or (not a!5) a!6)))))


(check-sat)
(get-info :all-statistics)
(get-model)
